<number of tasks>
45

<cycle time>
110

<task times>
1 9
2 9
3 10
4 10
5 17
6 17
7 13
8 13
9 20
10 20
11 10
12 11
13 6
14 22
15 11
16 19
17 12
18 3
19 7
20 4
21 55
22 14
23 27
24 29
25 26
26 6
27 5
28 24
29 4
30 5
31 7
32 4
33 15
34 3
35 7
36 9
37 4
38 7
39 5
40 4
41 21
42 12
43 6
44 5
45 5

<precedence relations>
1,3
1,7
2,4
2,8
3,5
4,6
5,9
6,10
7,9
7,14
8,10
8,14
9,41
10,41
11,13
12,13
12,37
13,14
13,15
14,17
14,25
14,29
14,30
14,31
14,32
15,16
15,18
15,23
15,24
16,19
17,26
17,27
18,19
19,20
19,33
20,21
21,22
22,28
23,33
24,33
25,26
26,38
27,28
27,33
28,38
29,41
30,41
31,41
32,41
33,34
33,35
33,36
34,38
35,40
36,38
37,43
38,40
39,41
40,41
41,42
42,44
42,45

<setup times forward>
1,2:1
1,4:1
1,8:1
1,11:1
1,13:1
1,15:1
1,16:1
1,19:1
1,20:1
1,21:1
1,22:1
1,23:1
1,37:1
2,1:1
2,3:1
2,7:1
2,8:2
2,11:2
2,12:1
2,15:2
2,16:2
2,18:1
2,22:2
2,24:1
2,37:2
2,39:1
2,43:1
3,2:1
3,4:1
3,5:1
3,8:1
3,11:1
3,13:1
3,14:1
3,15:1
3,16:1
3,17:1
3,19:1
3,20:1
3,21:1
3,22:1
3,23:1
3,26:1
3,27:1
3,28:1
3,29:1
3,31:1
3,32:1
3,35:1
3,36:1
3,37:1
3,38:1
3,40:1
4,1:1
4,3:1
4,6:1
4,7:1
4,8:2
4,11:2
4,12:1
4,15:2
4,16:2
4,18:1
4,22:2
4,24:1
4,25:1
4,26:2
4,27:2
4,29:2
4,30:1
4,33:1
4,34:1
4,35:2
4,37:2
4,39:1
4,40:2
4,43:1
5,6:1
5,7:1
5,8:2
5,10:1
5,11:2
5,12:1
5,15:2
5,16:2
5,18:1
5,22:2
5,24:1
5,25:1
5,26:2
5,27:2
5,29:2
5,30:1
5,33:1
5,34:1
5,35:2
5,37:2
5,39:1
5,40:2
5,43:1
6,5:1
6,8:1
6,9:1
6,11:1
6,13:1
6,14:1
6,15:1
6,16:1
6,17:1
6,19:1
6,20:1
6,21:1
6,22:1
6,23:1
6,26:1
6,27:1
6,28:1
6,29:1
6,31:1
6,32:1
6,35:1
6,36:1
6,37:1
6,38:1
6,40:1
7,2:1
7,4:1
7,5:1
7,8:1
7,9:1
7,11:1
7,13:1
7,14:1
7,15:1
7,16:1
7,19:1
7,20:1
7,21:1
7,22:1
7,23:1
7,37:1
8,1:1
8,3:1
8,4:2
8,5:2
8,6:1
8,7:1
8,9:2
8,10:1
8,12:1
8,13:2
8,14:2
8,18:1
8,19:2
8,20:2
8,21:2
8,23:2
8,24:1
8,39:1
8,43:1
9,6:1
9,8:2
9,10:1
9,11:2
9,12:1
9,15:2
9,16:2
9,18:1
9,22:2
9,24:1
9,25:1
9,26:2
9,27:2
9,29:2
9,30:1
9,33:1
9,34:1
9,35:2
9,37:2
9,39:1
9,40:2
9,41:2
9,43:1
10,5:1
10,9:1
10,11:1
10,13:1
10,14:1
10,15:1
10,16:1
10,17:1
10,19:1
10,20:1
10,21:1
10,22:1
10,23:1
10,26:1
10,27:1
10,28:1
10,29:1
10,31:1
10,32:1
10,35:1
10,36:1
10,37:1
10,38:1
10,40:1
10,41:1
11,1:1
11,2:2
11,3:1
11,4:2
11,5:2
11,6:1
11,7:1
11,9:2
11,10:1
11,12:1
11,13:2
11,39:1
11,43:1
12,2:1
12,4:1
12,5:1
12,8:1
12,9:1
12,11:1
12,13:1
12,37:1
13,1:1
13,3:1
13,6:1
13,7:1
13,8:2
13,10:1
13,15:2
13,37:2
13,39:1
13,43:1
14,3:1
14,6:1
14,10:1
14,15:2
14,16:2
14,18:1
14,22:2
14,24:1
14,25:1
14,29:2
14,30:1
14,37:2
14,39:1
14,43:1
15,1:1
15,2:2
15,3:1
15,4:2
15,5:2
15,6:1
15,7:1
15,9:2
15,10:1
15,14:2
15,17:2
15,18:1
15,23:2
15,24:1
15,25:1
15,30:1
15,31:2
15,32:2
15,39:1
15,43:1
16,1:1
16,2:2
16,3:1
16,4:2
16,5:2
16,6:1
16,7:1
16,9:2
16,10:1
16,14:2
16,17:2
16,18:1
16,19:2
16,23:2
16,24:1
16,25:1
16,30:1
16,31:2
16,32:2
16,39:1
16,43:1
17,3:1
17,6:1
17,10:1
17,15:2
17,16:2
17,18:1
17,22:2
17,24:1
17,25:1
17,26:2
17,27:2
17,29:2
17,30:1
17,37:2
17,39:1
17,43:1
18,2:1
18,4:1
18,5:1
18,8:1
18,9:1
18,14:1
18,16:1
18,17:1
18,19:1
18,23:1
18,26:1
18,27:1
18,29:1
18,31:1
18,32:1
18,37:1
19,1:1
19,3:1
19,6:1
19,7:1
19,8:2
19,10:1
19,24:1
19,25:1
19,26:2
19,27:2
19,29:2
19,30:1
19,33:1
19,37:2
19,39:1
19,43:1
20,1:1
20,3:1
20,6:1
20,7:1
20,8:2
20,10:1
20,24:1
20,25:1
20,26:2
20,27:2
20,29:2
20,30:1
20,33:1
20,34:1
20,35:2
20,37:2
20,39:1
20,43:1
21,1:1
21,3:1
21,6:1
21,7:1
21,8:2
21,10:1
21,22:2
21,24:1
21,25:1
21,26:2
21,27:2
21,29:2
21,30:1
21,33:1
21,34:1
21,35:2
21,37:2
21,39:1
21,43:1
22,1:1
22,2:2
22,3:1
22,4:2
22,5:2
22,6:1
22,7:1
22,9:2
22,10:1
22,14:2
22,17:2
22,23:2
22,24:1
22,25:1
22,28:2
22,30:1
22,31:2
22,32:2
22,33:1
22,34:1
22,36:2
22,39:1
22,43:1
23,1:1
23,3:1
23,6:1
23,7:1
23,8:2
23,10:1
23,16:2
23,18:1
23,22:2
23,24:1
23,25:1
23,26:2
23,27:2
23,29:2
23,30:1
23,33:1
23,37:2
23,39:1
23,43:1
24,2:1
24,4:1
24,5:1
24,8:1
24,9:1
24,14:1
24,16:1
24,17:1
24,19:1
24,20:1
24,21:1
24,22:1
24,23:1
24,26:1
24,27:1
24,28:1
24,29:1
24,31:1
24,32:1
24,37:1
25,4:1
25,5:1
25,9:1
25,15:1
25,16:1
25,17:1
25,19:1
25,20:1
25,21:1
25,22:1
25,23:1
25,26:1
25,27:1
25,28:1
25,29:1
25,31:1
25,32:1
25,35:1
25,36:1
25,37:1
26,3:1
26,4:2
26,5:2
26,6:1
26,9:2
26,10:1
26,18:1
26,19:2
26,20:2
26,21:2
26,23:2
26,24:1
26,28:2
26,30:1
26,31:2
26,32:2
26,33:1
26,34:1
26,36:2
26,38:2
26,39:1
26,43:1
27,3:1
27,4:2
27,5:2
27,6:1
27,9:2
27,10:1
27,18:1
27,19:2
27,20:2
27,21:2
27,23:2
27,24:1
27,25:1
27,28:2
27,30:1
27,31:2
27,32:2
27,33:1
27,39:1
27,43:1
28,3:1
28,6:1
28,10:1
28,24:1
28,25:1
28,26:2
28,29:2
28,30:1
28,33:1
28,34:1
28,35:2
28,37:2
28,39:1
28,43:1
29,3:1
29,4:2
29,5:2
29,6:1
29,9:2
29,10:1
29,17:2
29,18:1
29,19:2
29,20:2
29,21:2
29,23:2
29,24:1
29,25:1
29,28:2
29,30:1
29,31:2
29,32:2
29,33:1
29,34:1
29,36:2
29,38:2
29,39:1
29,43:1
30,4:1
30,5:1
30,9:1
30,15:1
30,16:1
30,17:1
30,19:1
30,20:1
30,21:1
30,22:1
30,23:1
30,26:1
30,27:1
30,28:1
30,29:1
30,31:1
30,32:1
30,35:1
30,36:1
30,37:1
30,38:1
30,40:1
30,41:1
31,3:1
31,6:1
31,10:1
31,15:2
31,16:2
31,18:1
31,22:2
31,24:1
31,25:1
31,26:2
31,27:2
31,29:2
31,30:1
31,33:1
31,34:1
31,35:2
31,37:2
31,39:1
31,40:2
31,41:2
31,43:1
32,3:1
32,6:1
32,10:1
32,15:2
32,16:2
32,18:1
32,22:2
32,24:1
32,25:1
32,26:2
32,27:2
32,29:2
32,30:1
32,33:1
32,34:1
32,35:2
32,37:2
32,39:1
32,40:2
32,41:2
32,43:1
33,4:1
33,5:1
33,9:1
33,20:1
33,21:1
33,22:1
33,26:1
33,28:1
33,29:1
33,31:1
33,32:1
33,35:1
33,36:1
33,37:1
34,4:1
34,5:1
34,9:1
34,20:1
34,21:1
34,22:1
34,26:1
34,28:1
34,29:1
34,31:1
34,32:1
34,35:1
34,36:1
34,37:1
34,38:1
35,3:1
35,4:2
35,5:2
35,6:1
35,9:2
35,10:1
35,20:2
35,21:2
35,25:1
35,28:2
35,30:1
35,31:2
35,32:2
35,34:1
35,36:2
35,38:2
35,39:1
35,43:1
36,3:1
36,6:1
36,10:1
36,22:2
36,25:1
36,26:2
36,29:2
36,30:1
36,34:1
36,35:2
36,37:2
36,39:1
36,43:1
37,1:1
37,2:2
37,3:1
37,4:2
37,5:2
37,6:1
37,7:1
37,9:2
37,10:1
37,13:2
37,14:2
37,17:2
37,18:1
37,19:2
37,20:2
37,21:2
37,23:2
37,24:1
37,25:1
37,28:2
37,30:1
37,31:2
37,32:2
37,33:1
37,34:1
37,36:2
37,38:2
37,39:1
37,43:1
37,44:1
37,45:1
38,3:1
38,6:1
38,10:1
38,29:2
38,30:1
38,35:2
38,37:2
38,39:1
38,40:2
38,43:1
39,2:1
39,4:1
39,5:1
39,8:1
39,9:1
39,11:1
39,13:1
39,14:1
39,15:1
39,16:1
39,17:1
39,19:1
39,20:1
39,21:1
39,22:1
39,23:1
39,26:1
39,27:1
39,28:1
39,29:1
39,31:1
39,32:1
39,35:1
39,36:1
39,37:1
39,38:1
39,40:1
39,41:1
40,3:1
40,4:2
40,5:2
40,6:1
40,9:2
40,10:1
40,30:1
40,31:2
40,32:2
40,39:1
40,43:1
41,43:1
42,43:1
42,44:1
42,45:1
43,2:1
43,4:1
43,5:1
43,8:1
43,9:1
43,11:1
43,13:1
43,14:1
43,15:1
43,16:1
43,17:1
43,19:1
43,20:1
43,21:1
43,22:1
43,23:1
43,26:1
43,27:1
43,28:1
43,29:1
43,31:1
43,32:1
43,35:1
43,36:1
43,38:1
43,40:1
43,41:1
43,42:1
44,37:1
45,37:1

<setup times backward>
1,1:3
1,2:2
1,4:2
1,6:3
1,8:4
1,10:3
1,11:4
1,12:3
1,13:2
1,15:4
1,16:4
1,18:3
1,19:2
1,20:2
1,21:2
1,22:4
1,23:2
1,24:3
1,37:4
1,39:3
1,43:3
2,1:4
2,2:3
2,3:4
2,5:3
2,7:4
2,9:3
2,11:5
2,12:4
2,13:3
2,15:5
2,16:5
2,18:4
2,19:3
2,20:3
2,21:3
2,22:5
2,23:3
2,24:4
2,37:5
2,39:4
2,43:4
3,1:3
3,2:2
3,3:3
3,4:2
3,6:3
3,7:3
3,8:4
3,10:3
3,11:4
3,12:3
3,13:2
3,14:2
3,15:4
3,16:4
3,17:2
3,18:3
3,19:2
3,20:2
3,21:2
3,22:4
3,23:2
3,24:3
3,25:3
3,26:4
3,27:4
3,28:2
3,29:4
3,30:3
3,31:2
3,32:2
3,33:3
3,34:3
3,35:4
3,36:2
3,37:4
3,38:2
3,39:3
3,40:4
3,43:3
4,1:4
4,2:3
4,3:4
4,4:3
4,5:3
4,7:4
4,8:5
4,9:3
4,11:5
4,12:4
4,13:3
4,14:3
4,15:5
4,16:5
4,17:3
4,18:4
4,19:3
4,20:3
4,21:3
4,22:5
4,23:3
4,24:4
4,25:4
4,26:5
4,27:5
4,28:3
4,29:5
4,30:4
4,31:3
4,32:3
4,33:4
4,34:4
4,35:5
4,36:3
4,37:5
4,38:3
4,39:4
4,40:5
4,43:4
5,1:4
5,2:3
5,3:4
5,4:3
5,5:3
5,6:4
5,7:4
5,8:5
5,10:4
5,11:5
5,12:4
5,13:3
5,14:3
5,15:5
5,16:5
5,17:3
5,18:4
5,19:3
5,20:3
5,21:3
5,22:5
5,23:3
5,24:4
5,25:4
5,26:5
5,27:5
5,28:3
5,29:5
5,30:4
5,31:3
5,32:3
5,33:4
5,34:4
5,35:5
5,36:3
5,37:5
5,38:3
5,39:4
5,40:5
5,43:4
6,1:3
6,2:2
6,3:3
6,4:2
6,5:2
6,6:3
6,7:3
6,8:4
6,9:2
6,11:4
6,12:3
6,13:2
6,14:2
6,15:4
6,16:4
6,17:2
6,18:3
6,19:2
6,20:2
6,21:2
6,22:4
6,23:2
6,24:3
6,25:3
6,26:4
6,27:4
6,28:2
6,29:4
6,30:3
6,31:2
6,32:2
6,33:3
6,34:3
6,35:4
6,36:2
6,37:4
6,38:2
6,39:3
6,40:4
6,43:3
7,1:3
7,2:2
7,3:3
7,4:2
7,5:2
7,6:3
7,7:3
7,8:4
7,10:3
7,11:4
7,12:3
7,13:2
7,15:4
7,16:4
7,18:3
7,19:2
7,20:2
7,21:2
7,22:4
7,23:2
7,24:3
7,37:4
7,39:3
7,43:3
8,1:2
8,2:1
8,3:2
8,4:1
8,5:1
8,6:2
8,7:2
8,8:3
8,9:1
8,11:3
8,12:2
8,13:1
8,15:3
8,16:3
8,18:2
8,19:1
8,20:1
8,21:1
8,22:3
8,23:1
8,24:2
8,37:3
8,39:2
8,43:2
9,1:4
9,2:3
9,3:4
9,4:3
9,5:3
9,6:4
9,7:4
9,8:5
9,9:3
9,10:4
9,11:5
9,12:4
9,13:3
9,14:3
9,15:5
9,16:5
9,17:3
9,18:4
9,19:3
9,20:3
9,21:3
9,22:5
9,23:3
9,24:4
9,25:4
9,26:5
9,27:5
9,28:3
9,29:5
9,30:4
9,31:3
9,32:3
9,33:4
9,34:4
9,35:5
9,36:3
9,37:5
9,38:3
9,39:4
9,40:5
9,43:4
10,1:3
10,2:2
10,3:3
10,4:2
10,5:2
10,6:3
10,7:3
10,8:4
10,9:2
10,10:3
10,11:4
10,12:3
10,13:2
10,14:2
10,15:4
10,16:4
10,17:2
10,18:3
10,19:2
10,20:2
10,21:2
10,22:4
10,23:2
10,24:3
10,25:3
10,26:4
10,27:4
10,28:2
10,29:4
10,30:3
10,31:2
10,32:2
10,33:3
10,34:3
10,35:4
10,36:2
10,37:4
10,38:2
10,39:3
10,40:4
10,43:3
11,1:2
11,2:1
11,3:2
11,4:1
11,5:1
11,6:2
11,7:2
11,8:3
11,9:1
11,10:2
11,11:3
11,12:2
11,37:3
11,39:2
11,43:2
12,1:3
12,2:2
12,3:3
12,4:2
12,5:2
12,6:3
12,7:3
12,8:4
12,9:2
12,10:3
12,11:4
12,12:3
12,39:3
13,1:4
13,2:3
13,3:4
13,4:3
13,5:3
13,6:4
13,7:4
13,8:5
13,9:3
13,10:4
13,11:5
13,12:4
13,13:3
13,37:5
13,39:4
13,43:4
14,1:4
14,2:3
14,3:4
14,4:3
14,5:3
14,6:4
14,7:4
14,8:5
14,9:3
14,10:4
14,11:5
14,12:4
14,13:3
14,14:3
14,15:5
14,16:5
14,18:4
14,19:3
14,20:3
14,21:3
14,22:5
14,23:3
14,24:4
14,37:5
14,39:4
14,43:4
15,1:2
15,2:1
15,3:2
15,4:1
15,5:1
15,6:2
15,7:2
15,8:3
15,9:1
15,10:2
15,11:3
15,12:2
15,13:1
15,14:1
15,15:3
15,17:1
15,25:2
15,26:3
15,27:3
15,29:3
15,30:2
15,31:1
15,32:1
15,37:3
15,39:2
15,43:2
16,1:2
16,2:1
16,3:2
16,4:1
16,5:1
16,6:2
16,7:2
16,8:3
16,9:1
16,10:2
16,11:3
16,12:2
16,13:1
16,14:1
16,15:3
16,16:3
16,17:1
16,18:2
16,23:1
16,24:2
16,25:2
16,26:3
16,27:3
16,29:3
16,30:2
16,31:1
16,32:1
16,37:3
16,39:2
16,43:2
17,1:4
17,2:3
17,3:4
17,4:3
17,5:3
17,6:4
17,7:4
17,8:5
17,9:3
17,10:4
17,11:5
17,12:4
17,13:3
17,14:3
17,15:5
17,16:5
17,17:3
17,18:4
17,19:3
17,20:3
17,21:3
17,22:5
17,23:3
17,24:4
17,25:4
17,29:5
17,30:4
17,31:3
17,32:3
17,37:5
17,39:4
17,43:4
18,1:3
18,2:2
18,3:3
18,4:2
18,5:2
18,6:3
18,7:3
18,8:4
18,9:2
18,10:3
18,11:4
18,12:3
18,13:2
18,14:2
18,15:4
18,16:4
18,17:2
18,18:3
18,23:2
18,24:3
18,25:3
18,26:4
18,27:4
18,29:4
18,30:3
18,31:2
18,32:2
18,37:4
18,39:3
18,43:3
19,1:4
19,2:3
19,3:4
19,4:3
19,5:3
19,6:4
19,7:4
19,8:5
19,9:3
19,10:4
19,11:5
19,12:4
19,13:3
19,14:3
19,15:5
19,16:5
19,17:3
19,18:4
19,19:3
19,23:3
19,24:4
19,25:4
19,26:5
19,27:5
19,29:5
19,30:4
19,31:3
19,32:3
19,37:5
19,39:4
19,43:4
20,1:4
20,2:3
20,3:4
20,4:3
20,5:3
20,6:4
20,7:4
20,8:5
20,9:3
20,10:4
20,11:5
20,12:4
20,13:3
20,14:3
20,15:5
20,16:5
20,17:3
20,18:4
20,19:3
20,20:3
20,23:3
20,24:4
20,25:4
20,26:5
20,27:5
20,29:5
20,30:4
20,31:3
20,32:3
20,33:4
20,34:4
20,35:5
20,36:3
20,37:5
20,39:4
20,43:4
21,1:4
21,2:3
21,3:4
21,4:3
21,5:3
21,6:4
21,7:4
21,8:5
21,9:3
21,10:4
21,11:5
21,12:4
21,13:3
21,14:3
21,15:5
21,16:5
21,17:3
21,18:4
21,19:3
21,20:3
21,21:3
21,23:3
21,24:4
21,25:4
21,26:5
21,27:5
21,29:5
21,30:4
21,31:3
21,32:3
21,33:4
21,34:4
21,35:5
21,36:3
21,37:5
21,39:4
21,43:4
22,1:2
22,2:1
22,3:2
22,4:1
22,5:1
22,6:2
22,7:2
22,8:3
22,9:1
22,10:2
22,11:3
22,12:2
22,13:1
22,14:1
22,15:3
22,16:3
22,17:1
22,18:2
22,19:1
22,20:1
22,21:1
22,22:3
22,23:1
22,24:2
22,25:2
22,26:3
22,27:3
22,29:3
22,30:2
22,31:1
22,32:1
22,33:2
22,34:2
22,35:3
22,36:1
22,37:3
22,39:2
22,43:2
23,1:4
23,2:3
23,3:4
23,4:3
23,5:3
23,6:4
23,7:4
23,8:5
23,9:3
23,10:4
23,11:5
23,12:4
23,13:3
23,14:3
23,15:5
23,16:5
23,17:3
23,18:4
23,19:3
23,20:3
23,21:3
23,22:5
23,23:3
23,24:4
23,25:4
23,26:5
23,27:5
23,28:3
23,29:5
23,30:4
23,31:3
23,32:3
23,37:5
23,39:4
23,43:4
24,1:3
24,2:2
24,3:3
24,4:2
24,5:2
24,6:3
24,7:3
24,8:4
24,9:2
24,10:3
24,11:4
24,12:3
24,13:2
24,14:2
24,15:4
24,16:4
24,17:2
24,18:3
24,19:2
24,20:2
24,21:2
24,22:4
24,23:2
24,24:3
24,25:3
24,26:4
24,27:4
24,28:2
24,29:4
24,30:3
24,31:2
24,32:2
24,37:4
24,39:3
24,43:3
25,1:3
25,2:2
25,3:3
25,4:2
25,5:2
25,6:3
25,7:3
25,8:4
25,9:2
25,10:3
25,11:4
25,12:3
25,13:2
25,14:2
25,15:4
25,16:4
25,17:2
25,18:3
25,19:2
25,20:2
25,21:2
25,22:4
25,23:2
25,24:3
25,25:3
25,27:4
25,28:2
25,29:4
25,30:3
25,31:2
25,32:2
25,33:3
25,34:3
25,35:4
25,36:2
25,37:4
25,39:3
25,43:3
26,1:2
26,2:1
26,3:2
26,4:1
26,5:1
26,6:2
26,7:2
26,8:3
26,9:1
26,10:2
26,11:3
26,12:2
26,13:1
26,14:1
26,15:3
26,16:3
26,17:1
26,18:2
26,19:1
26,20:1
26,21:1
26,22:3
26,23:1
26,24:2
26,25:2
26,26:3
26,27:3
26,28:1
26,29:3
26,30:2
26,31:1
26,32:1
26,33:2
26,34:2
26,35:3
26,36:1
26,37:3
26,39:2
26,43:2
27,1:2
27,2:1
27,3:2
27,4:1
27,5:1
27,6:2
27,7:2
27,8:3
27,9:1
27,10:2
27,11:3
27,12:2
27,13:1
27,14:1
27,15:3
27,16:3
27,17:1
27,18:2
27,19:1
27,20:1
27,21:1
27,22:3
27,23:1
27,24:2
27,25:2
27,26:3
27,27:3
27,29:3
27,30:2
27,31:1
27,32:1
27,37:3
27,39:2
27,43:2
28,1:4
28,2:3
28,3:4
28,4:3
28,5:3
28,6:4
28,7:4
28,8:5
28,9:3
28,10:4
28,11:5
28,12:4
28,13:3
28,14:3
28,15:5
28,16:5
28,17:3
28,18:4
28,19:3
28,20:3
28,21:3
28,22:5
28,23:3
28,24:4
28,25:4
28,26:5
28,27:5
28,28:3
28,29:5
28,30:4
28,31:3
28,32:3
28,33:4
28,34:4
28,35:5
28,36:3
28,37:5
28,39:4
28,43:4
29,1:2
29,2:1
29,3:2
29,4:1
29,5:1
29,6:2
29,7:2
29,8:3
29,9:1
29,10:2
29,11:3
29,12:2
29,13:1
29,14:1
29,15:3
29,16:3
29,17:1
29,18:2
29,19:1
29,20:1
29,21:1
29,22:3
29,23:1
29,24:2
29,25:2
29,26:3
29,27:3
29,28:1
29,29:3
29,30:2
29,31:1
29,32:1
29,33:2
29,34:2
29,35:3
29,36:1
29,37:3
29,38:1
29,39:2
29,40:3
29,43:2
30,1:3
30,2:2
30,3:3
30,4:2
30,5:2
30,6:3
30,7:3
30,8:4
30,9:2
30,10:3
30,11:4
30,12:3
30,13:2
30,14:2
30,15:4
30,16:4
30,17:2
30,18:3
30,19:2
30,20:2
30,21:2
30,22:4
30,23:2
30,24:3
30,25:3
30,26:4
30,27:4
30,28:2
30,29:4
30,30:3
30,31:2
30,32:2
30,33:3
30,34:3
30,35:4
30,36:2
30,37:4
30,38:2
30,39:3
30,40:4
30,43:3
31,1:4
31,2:3
31,3:4
31,4:3
31,5:3
31,6:4
31,7:4
31,8:5
31,9:3
31,10:4
31,11:5
31,12:4
31,13:3
31,14:3
31,15:5
31,16:5
31,17:3
31,18:4
31,19:3
31,20:3
31,21:3
31,22:5
31,23:3
31,24:4
31,25:4
31,26:5
31,27:5
31,28:3
31,29:5
31,30:4
31,31:3
31,32:3
31,33:4
31,34:4
31,35:5
31,36:3
31,37:5
31,38:3
31,39:4
31,40:5
31,43:4
32,1:4
32,2:3
32,3:4
32,4:3
32,5:3
32,6:4
32,7:4
32,8:5
32,9:3
32,10:4
32,11:5
32,12:4
32,13:3
32,14:3
32,15:5
32,16:5
32,17:3
32,18:4
32,19:3
32,20:3
32,21:3
32,22:5
32,23:3
32,24:4
32,25:4
32,26:5
32,27:5
32,28:3
32,29:5
32,30:4
32,31:3
32,32:3
32,33:4
32,34:4
32,35:5
32,36:3
32,37:5
32,38:3
32,39:4
32,40:5
32,43:4
33,1:3
33,2:2
33,3:3
33,4:2
33,5:2
33,6:3
33,7:3
33,8:4
33,9:2
33,10:3
33,11:4
33,12:3
33,13:2
33,14:2
33,15:4
33,16:4
33,17:2
33,18:3
33,19:2
33,20:2
33,21:2
33,22:4
33,23:2
33,24:3
33,25:3
33,26:4
33,27:4
33,28:2
33,29:4
33,30:3
33,31:2
33,32:2
33,33:3
33,37:4
33,39:3
33,43:3
34,1:3
34,2:2
34,3:3
34,4:2
34,5:2
34,6:3
34,7:3
34,8:4
34,9:2
34,10:3
34,11:4
34,12:3
34,13:2
34,14:2
34,15:4
34,16:4
34,17:2
34,18:3
34,19:2
34,20:2
34,21:2
34,22:4
34,23:2
34,24:3
34,25:3
34,26:4
34,27:4
34,28:2
34,29:4
34,30:3
34,31:2
34,32:2
34,33:3
34,34:3
34,35:4
34,36:2
34,37:4
34,39:3
34,43:3
35,1:2
35,2:1
35,3:2
35,4:1
35,5:1
35,6:2
35,7:2
35,8:3
35,9:1
35,10:2
35,11:3
35,12:2
35,13:1
35,14:1
35,15:3
35,16:3
35,17:1
35,18:2
35,19:1
35,20:1
35,21:1
35,22:3
35,23:1
35,24:2
35,25:2
35,26:3
35,27:3
35,28:1
35,29:3
35,30:2
35,31:1
35,32:1
35,33:2
35,34:2
35,35:3
35,36:1
35,37:3
35,38:1
35,39:2
35,43:2
36,1:4
36,2:3
36,3:4
36,4:3
36,5:3
36,6:4
36,7:4
36,8:5
36,9:3
36,10:4
36,11:5
36,12:4
36,13:3
36,14:3
36,15:5
36,16:5
36,17:3
36,18:4
36,19:3
36,20:3
36,21:3
36,22:5
36,23:3
36,24:4
36,25:4
36,26:5
36,27:5
36,28:3
36,29:5
36,30:4
36,31:3
36,32:3
36,33:4
36,34:4
36,35:5
36,36:3
36,37:5
36,39:4
36,43:4
37,1:2
37,2:1
37,3:2
37,4:1
37,5:1
37,6:2
37,7:2
37,8:3
37,9:1
37,10:2
37,11:3
37,12:2
37,13:1
37,14:1
37,15:3
37,16:3
37,17:1
37,18:2
37,19:1
37,20:1
37,21:1
37,22:3
37,23:1
37,24:2
37,25:2
37,26:3
37,27:3
37,28:1
37,29:3
37,30:2
37,31:1
37,32:1
37,33:2
37,34:2
37,35:3
37,36:1
37,37:3
37,38:1
37,39:2
37,40:3
37,41:3
37,42:3
37,44:2
37,45:2
38,1:4
38,2:3
38,3:4
38,4:3
38,5:3
38,6:4
38,7:4
38,8:5
38,9:3
38,10:4
38,11:5
38,12:4
38,13:3
38,14:3
38,15:5
38,16:5
38,17:3
38,18:4
38,19:3
38,20:3
38,21:3
38,22:5
38,23:3
38,24:4
38,25:4
38,26:5
38,27:5
38,28:3
38,29:5
38,30:4
38,31:3
38,32:3
38,33:4
38,34:4
38,35:5
38,36:3
38,37:5
38,38:3
38,39:4
38,43:4
39,1:3
39,2:2
39,3:3
39,4:2
39,5:2
39,6:3
39,7:3
39,8:4
39,9:2
39,10:3
39,11:4
39,12:3
39,13:2
39,14:2
39,15:4
39,16:4
39,17:2
39,18:3
39,19:2
39,20:2
39,21:2
39,22:4
39,23:2
39,24:3
39,25:3
39,26:4
39,27:4
39,28:2
39,29:4
39,30:3
39,31:2
39,32:2
39,33:3
39,34:3
39,35:4
39,36:2
39,37:4
39,38:2
39,39:3
39,40:4
39,43:3
40,1:2
40,2:1
40,3:2
40,4:1
40,5:1
40,6:2
40,7:2
40,8:3
40,9:1
40,10:2
40,11:3
40,12:2
40,13:1
40,14:1
40,15:3
40,16:3
40,17:1
40,18:2
40,19:1
40,20:1
40,21:1
40,22:3
40,23:1
40,24:2
40,25:2
40,26:3
40,27:3
40,28:1
40,29:3
40,30:2
40,31:1
40,32:1
40,33:2
40,34:2
40,35:3
40,36:1
40,37:3
40,38:1
40,39:2
40,40:3
40,43:2
41,1:2
41,2:1
41,3:2
41,4:1
41,5:1
41,6:2
41,7:2
41,8:3
41,9:1
41,10:2
41,11:3
41,12:2
41,13:1
41,14:1
41,15:3
41,16:3
41,17:1
41,18:2
41,19:1
41,20:1
41,21:1
41,22:3
41,23:1
41,24:2
41,25:2
41,26:3
41,27:3
41,28:1
41,29:3
41,30:2
41,31:1
41,32:1
41,33:2
41,34:2
41,35:3
41,36:1
41,37:3
41,38:1
41,39:2
41,40:3
41,41:3
41,43:2
42,1:2
42,2:1
42,3:2
42,4:1
42,5:1
42,6:2
42,7:2
42,8:3
42,9:1
42,10:2
42,11:3
42,12:2
42,13:1
42,14:1
42,15:3
42,16:3
42,17:1
42,18:2
42,19:1
42,20:1
42,21:1
42,22:3
42,23:1
42,24:2
42,25:2
42,26:3
42,27:3
42,28:1
42,29:3
42,30:2
42,31:1
42,32:1
42,33:2
42,34:2
42,35:3
42,36:1
42,37:3
42,38:1
42,39:2
42,40:3
42,41:3
42,42:3
42,43:2
43,1:3
43,2:2
43,3:3
43,4:2
43,5:2
43,6:3
43,7:3
43,8:4
43,9:2
43,10:3
43,11:4
43,12:3
43,13:2
43,14:2
43,15:4
43,16:4
43,17:2
43,18:3
43,19:2
43,20:2
43,21:2
43,22:4
43,23:2
43,24:3
43,25:3
43,26:4
43,27:4
43,28:2
43,29:4
43,30:3
43,31:2
43,32:2
43,33:3
43,34:3
43,35:4
43,36:2
43,37:4
43,38:2
43,39:3
43,40:4
43,41:4
43,42:4
43,43:3
43,44:3
43,45:3
44,1:3
44,2:2
44,3:3
44,4:2
44,5:2
44,6:3
44,7:3
44,8:4
44,9:2
44,10:3
44,11:4
44,12:3
44,13:2
44,14:2
44,15:4
44,16:4
44,17:2
44,18:3
44,19:2
44,20:2
44,21:2
44,22:4
44,23:2
44,24:3
44,25:3
44,26:4
44,27:4
44,28:2
44,29:4
44,30:3
44,31:2
44,32:2
44,33:3
44,34:3
44,35:4
44,36:2
44,37:4
44,38:2
44,39:3
44,40:4
44,41:4
44,42:4
44,43:3
44,44:3
44,45:3
45,1:3
45,2:2
45,3:3
45,4:2
45,5:2
45,6:3
45,7:3
45,8:4
45,9:2
45,10:3
45,11:4
45,12:3
45,13:2
45,14:2
45,15:4
45,16:4
45,17:2
45,18:3
45,19:2
45,20:2
45,21:2
45,22:4
45,23:2
45,24:3
45,25:3
45,26:4
45,27:4
45,28:2
45,29:4
45,30:3
45,31:2
45,32:2
45,33:3
45,34:3
45,35:4
45,36:2
45,37:4
45,38:2
45,39:3
45,40:4
45,41:4
45,42:4
45,43:3
45,44:3
45,45:3

<end>

<optimal SALBP-1 value>
6


<rand seed>
467321153

